c Result of efficient AIG-to-CNF conversion using package CNF
p cnf 389 1348
2 3 -165 0
2 -3 165 0
-2 -3 -165 0
-2 3 165 0
3 384 -4 142 0
3 -384 142 -153 0
-3 -142 0
-3 -384 153 0
-3 384 4 0
4 385 -5 0
4 -385 -121 132 0
-4 -385 121 0
-4 385 5 0
-4 -385 -132 0
5 386 -6 0
5 -386 -101 0
-5 -386 101 0
-5 386 6 0
6 387 -7 0
6 -387 -73 0
-6 -387 73 0
-6 387 7 0
7 388 -8 -18 0
7 -388 -8 -45 0
-7 8 0
-7 -388 45 0
-7 388 18 0
8 -9 -12 -14 -16 0
-8 16 0
-8 9 0
-8 14 0
-8 12 0
9 -332 -335 -348 -10 0
-9 10 0
-9 332 0
-9 348 0
-9 335 0
10 -338 -339 -349 -11 0
-10 11 0
-10 338 0
-10 349 0
-10 339 0
11 -333 -334 -337 -351 0
-11 351 0
-11 333 0
-11 337 0
-11 334 0
12 -325 -336 -350 -13 0
-12 13 0
-12 325 0
-12 350 0
-12 336 0
13 -326 -329 -340 -341 0
-13 341 0
-13 326 0
-13 340 0
-13 329 0
14 -327 -328 -330 -15 0
-14 15 0
-14 327 0
-14 330 0
-14 328 0
15 -342 -343 0
-15 342 0
-15 343 0
16 -345 -346 -347 -17 0
-16 17 0
-16 345 0
-16 347 0
-16 346 0
17 -331 -344 0
-17 331 0
-17 344 0
-18 -352 19 0
-18 352 32 0
18 -352 -19 0
18 352 -32 0
-19 -353 20 0
-19 353 25 0
19 -353 -20 0
19 353 -25 0
-20 354 22 0
-20 -354 355 21 0
20 -354 -355 0
20 354 -22 0
20 -354 -21 0
21 -352 -356 0
21 -351 356 0
-21 351 356 0
-21 352 -356 0
22 -355 -23 0
22 355 -24 0
-22 355 24 0
-22 -355 23 0
23 -350 -356 0
23 -349 356 0
-23 349 356 0
-23 350 -356 0
24 -348 -356 0
24 -347 356 0
-24 347 356 0
-24 348 -356 0
25 -354 -26 0
25 354 -29 0
-25 354 29 0
-25 -354 26 0
26 -355 -27 0
26 355 -28 0
-26 355 28 0
-26 -355 27 0
27 -346 -356 0
27 -345 356 0
-27 345 356 0
-27 346 -356 0
28 -344 -356 0
28 -343 356 0
-28 343 356 0
-28 344 -356 0
29 -355 -30 0
29 355 -31 0
-29 355 31 0
-29 -355 30 0
30 -342 -356 0
30 -341 356 0
-30 341 356 0
-30 342 -356 0
31 -340 -356 0
31 -339 356 0
-31 339 356 0
-31 340 -356 0
32 -353 -33 0
32 353 -40 0
-32 353 40 0
-32 -353 33 0
33 -354 -34 0
33 354 -37 0
-33 354 37 0
-33 -354 34 0
34 -355 -35 0
34 355 -36 0
-34 355 36 0
-34 -355 35 0
35 -338 -356 0
35 -337 356 0
-35 337 356 0
-35 338 -356 0
36 -336 -356 0
36 -335 356 0
-36 335 356 0
-36 336 -356 0
37 -355 -38 0
37 355 -39 0
-37 355 39 0
-37 -355 38 0
38 -334 -356 0
38 -333 356 0
-38 333 356 0
-38 334 -356 0
39 -332 -356 0
39 -331 356 0
-39 331 356 0
-39 332 -356 0
40 -354 -41 0
40 354 -44 0
-40 354 44 0
-40 -354 41 0
41 -355 -42 0
41 355 -43 0
-41 355 43 0
-41 -355 42 0
42 -330 -356 0
42 -329 356 0
-42 329 356 0
-42 330 -356 0
43 -328 -356 0
43 -327 356 0
-43 327 356 0
-43 328 -356 0
44 -325 -355 356 0
44 -326 -355 -356 0
-44 355 0
-44 326 -356 0
-44 325 356 0
-45 352 60 0
-45 -352 46 53 0
45 -352 -46 0
45 352 -60 0
45 -352 -53 0
46 -353 354 -50 0
46 -353 -354 -47 0
-46 353 0
-46 -354 47 0
-46 354 50 0
-47 -355 49 0
-47 355 48 0
47 355 -48 0
47 -355 -49 0
48 -351 -356 0
48 -350 356 0
-48 350 356 0
-48 351 -356 0
49 -353 -356 0
49 -352 356 0
-49 352 356 0
-49 353 -356 0
50 -355 -51 0
50 355 -52 0
-50 355 52 0
-50 -355 51 0
51 -349 -356 0
51 -348 356 0
-51 348 356 0
-51 349 -356 0
52 -347 -356 0
52 -346 356 0
-52 346 356 0
-52 347 -356 0
53 353 354 -57 0
53 353 -354 -54 0
-53 -353 0
-53 -354 54 0
-53 354 57 0
54 -355 -55 0
54 355 -56 0
-54 355 56 0
-54 -355 55 0
55 -345 -356 0
55 -344 356 0
-55 344 356 0
-55 345 -356 0
56 -343 -356 0
56 -342 356 0
-56 342 356 0
-56 343 -356 0
57 -355 -58 0
57 355 -59 0
-57 355 59 0
-57 -355 58 0
58 -341 -356 0
58 -340 356 0
-58 340 356 0
-58 341 -356 0
59 -339 -356 0
59 -338 356 0
-59 338 356 0
-59 339 -356 0
60 -353 -61 0
60 353 -68 0
-60 353 68 0
-60 -353 61 0
61 -354 -62 0
61 354 -65 0
-61 354 65 0
-61 -354 62 0
62 -355 -63 0
62 355 -64 0
-62 355 64 0
-62 -355 63 0
63 -337 -356 0
63 -336 356 0
-63 336 356 0
-63 337 -356 0
64 -335 -356 0
64 -334 356 0
-64 334 356 0
-64 335 -356 0
65 -355 -66 0
65 355 -67 0
-65 355 67 0
-65 -355 66 0
66 -333 -356 0
66 -332 356 0
-66 332 356 0
-66 333 -356 0
67 -331 -356 0
67 -330 356 0
-67 330 356 0
-67 331 -356 0
68 -354 -69 0
68 354 -72 0
-68 354 72 0
-68 -354 69 0
69 -355 -70 0
69 355 -71 0
-69 355 71 0
-69 -355 70 0
70 -329 -356 0
70 -328 356 0
-70 328 356 0
-70 329 -356 0
71 -327 -356 0
71 -326 356 0
-71 326 356 0
-71 327 -356 0
72 -325 -355 -356 0
-72 325 0
-72 355 0
-72 356 0
73 388 -8 -74 0
73 -388 -8 -88 0
-73 8 0
-73 -388 88 0
-73 388 74 0
-74 352 81 0
-74 -352 75 78 0
74 -352 -75 0
74 352 -81 0
74 -352 -78 0
75 -353 -354 -77 0
75 -353 354 -76 0
-75 353 0
-75 -354 77 0
-75 354 76 0
76 -355 -24 0
76 355 -27 0
-76 355 27 0
-76 -355 24 0
77 -355 -21 0
77 355 -23 0
-77 355 23 0
-77 -355 21 0
78 353 354 -80 0
78 353 -354 -79 0
-78 -353 0
-78 -354 79 0
-78 354 80 0
79 -355 -28 0
79 355 -30 0
-79 355 30 0
-79 -355 28 0
80 -355 -31 0
80 355 -35 0
-80 355 35 0
-80 -355 31 0
81 -353 -82 0
81 353 -85 0
-81 353 85 0
-81 -353 82 0
82 -354 -83 0
82 354 -84 0
-82 354 84 0
-82 -354 83 0
83 -355 -36 0
83 355 -38 0
-83 355 38 0
-83 -355 36 0
84 -355 -39 0
84 355 -42 0
-84 355 42 0
-84 -355 39 0
85 -354 -86 0
-85 354 0
-85 86 0
86 -355 -43 0
86 355 -87 0
-86 355 87 0
-86 -355 43 0
87 -326 -356 0
87 -325 356 0
-87 325 356 0
-87 326 -356 0
-88 352 95 0
-88 -352 89 92 0
88 -352 -89 0
88 352 -95 0
88 -352 -92 0
89 -353 -354 -91 0
89 -353 354 -90 0
-89 353 0
-89 -354 91 0
-89 354 90 0
90 -355 -52 0
90 355 -55 0
-90 355 55 0
-90 -355 52 0
91 -355 -48 0
91 355 -51 0
-91 355 51 0
-91 -355 48 0
92 353 354 -94 0
92 353 -354 -93 0
-92 -353 0
-92 -354 93 0
-92 354 94 0
93 -355 -56 0
93 355 -58 0
-93 355 58 0
-93 -355 56 0
94 -355 -59 0
94 355 -63 0
-94 355 63 0
-94 -355 59 0
95 -353 -96 0
95 353 -99 0
-95 353 99 0
-95 -353 96 0
96 -354 -97 0
96 354 -98 0
-96 354 98 0
-96 -354 97 0
97 -355 -64 0
97 355 -66 0
-97 355 66 0
-97 -355 64 0
98 -355 -67 0
98 355 -70 0
-98 355 70 0
-98 -355 67 0
99 -354 -100 0
-99 354 0
-99 100 0
100 -355 -71 0
100 -325 355 -356 0
-100 355 356 0
-100 -355 71 0
-100 325 355 0
101 387 -102 0
101 -387 -115 0
-101 -387 115 0
-101 387 102 0
102 388 -8 -103 0
102 -388 -8 -109 0
-102 8 0
-102 -388 109 0
-102 388 103 0
-103 352 106 0
-103 -352 104 105 0
103 -352 -104 0
103 352 -106 0
103 -352 -105 0
104 -353 354 -26 0
104 -353 -354 -22 0
-104 353 0
-104 -354 22 0
-104 354 26 0
105 353 354 -34 0
105 353 -354 -29 0
-105 -353 0
-105 -354 29 0
-105 354 34 0
106 -353 -107 0
106 353 -108 0
-106 353 108 0
-106 -353 107 0
107 -354 -37 0
107 354 -41 0
-107 354 41 0
-107 -354 37 0
108 -354 -44 0
-108 354 0
-108 44 0
-109 352 112 0
-109 -352 110 111 0
109 -352 -110 0
109 352 -112 0
109 -352 -111 0
110 -353 354 -54 0
110 -353 -354 -50 0
-110 353 0
-110 -354 50 0
-110 354 54 0
111 353 354 -62 0
111 353 -354 -57 0
-111 -353 0
-111 -354 57 0
-111 354 62 0
112 -353 -113 0
112 353 -114 0
-112 353 114 0
-112 -353 113 0
113 -354 -65 0
113 354 -69 0
-113 354 69 0
-113 -354 65 0
114 -325 -354 -355 -356 0
-114 356 0
-114 325 0
-114 355 0
-114 354 0
115 388 -8 -116 0
115 -388 -8 -118 0
-115 8 0
-115 -388 118 0
-115 388 116 0
-116 352 117 0
116 -352 0
116 -117 0
117 -353 354 -86 0
117 -353 -354 -84 0
-117 353 0
-117 -354 84 0
-117 354 86 0
-118 352 119 0
118 -352 0
118 -119 0
119 -353 -120 0
-119 353 0
-119 120 0
120 -354 -98 0
120 354 -100 0
-120 354 100 0
-120 -354 98 0
-121 386 -387 127 0
-121 386 387 122 0
121 -386 0
121 -387 -127 0
121 387 -122 0
122 388 -8 -123 0
122 -388 -8 -125 0
-122 8 0
-122 -388 125 0
-122 388 123 0
-123 352 124 0
123 -352 0
123 -124 0
124 -353 -40 0
-124 353 0
-124 40 0
-125 352 126 0
125 -352 0
125 -126 0
126 -353 -68 0
-126 353 0
-126 68 0
127 388 -8 -128 0
127 -388 -8 -130 0
-127 8 0
-127 -388 130 0
-127 388 128 0
-128 352 129 0
128 -352 0
128 -129 0
129 -353 -85 0
-129 353 0
-129 85 0
-130 352 131 0
130 -352 0
130 -131 0
131 -353 -99 0
-131 353 0
-131 99 0
132 -386 -387 138 0
132 -386 387 133 0
-132 386 0
-132 -387 -138 0
-132 387 -133 0
133 388 -8 -134 0
133 -388 -8 -136 0
-133 8 0
-133 -388 136 0
-133 388 134 0
-134 352 135 0
134 -352 0
134 -135 0
135 -353 -108 0
-135 353 0
-135 108 0
-136 352 137 0
136 -352 0
136 -137 0
137 -353 -114 0
-137 353 0
-137 114 0
138 388 -139 0
138 -139 -140 0
-138 139 0
-138 -388 140 0
139 -352 -8 0
-139 352 0
-139 8 0
140 353 -120 0
140 -353 -141 0
-140 -353 141 0
-140 353 120 0
141 -354 -94 0
141 354 -97 0
-141 354 97 0
-141 -354 94 0
-142 143 149 151 152 0
142 -152 0
142 -143 0
142 -151 0
142 -149 0
-143 381 382 144 146 0
143 -381 0
143 -146 0
143 -144 0
143 -382 0
-144 373 379 380 145 0
144 -145 0
144 -380 0
144 -373 0
144 -379 0
-145 377 378 383 0
145 -377 0
145 -383 0
145 -378 0
-146 369 370 147 148 0
146 -369 0
146 -148 0
146 -147 0
146 -370 0
-147 374 375 376 0
147 -374 0
147 -376 0
147 -375 0
-148 365 366 371 372 0
148 -372 0
148 -371 0
148 -365 0
148 -366 0
-149 363 367 368 150 0
149 -150 0
149 -368 0
149 -363 0
149 -367 0
-150 361 362 0
150 -361 0
150 -362 0
-151 357 364 0
151 -357 0
151 -364 0
-152 358 359 360 0
152 -358 0
152 -360 0
152 -359 0
153 -385 -160 0
153 385 -154 157 0
-153 385 154 0
-153 -385 160 0
-153 385 -157 0
-154 386 -387 156 0
-154 386 387 155 0
154 -386 0
154 -387 -156 0
154 387 -155 0
155 388 -32 -139 0
155 -388 -60 -139 0
-155 139 0
-155 -388 60 0
-155 388 32 0
156 388 -81 -139 0
156 -388 -95 -139 0
-156 139 0
-156 -388 95 0
-156 388 81 0
157 -386 -387 159 0
157 -386 387 158 0
-157 386 0
-157 -387 -159 0
-157 387 -158 0
158 388 -106 -139 0
158 -388 -112 -139 0
-158 139 0
-158 -388 112 0
-158 388 106 0
159 388 -117 -139 0
159 -388 -119 -139 0
-159 139 0
-159 -388 119 0
-159 388 117 0
160 386 -161 0
160 -386 387 -164 0
-160 -386 -387 0
-160 386 161 0
-160 -386 164 0
161 387 -162 0
161 -387 -163 0
-161 -387 163 0
-161 387 162 0
162 388 -124 -139 0
162 -388 -126 -139 0
-162 139 0
-162 -388 126 0
-162 388 124 0
163 388 -129 -139 0
163 -388 -131 -139 0
-163 139 0
-163 -388 131 0
-163 388 129 0
164 388 -135 -139 0
164 -388 -137 -139 0
-164 139 0
-164 -388 137 0
-164 388 135 0
165 352 -8 -313 0
165 -352 -8 -166 0
-165 8 0
-165 -352 166 0
-165 352 313 0
166 353 -286 0
166 -353 167 -257 0
-166 -353 -167 0
-166 353 286 0
-166 -353 257 0
167 -354 355 227 0
167 -354 -355 168 0
-167 354 0
-167 -355 -168 0
-167 355 -227 0
168 356 142 -198 0
168 -356 142 -169 0
-168 -142 0
-168 356 198 0
-168 -356 169 0
-169 384 170 0
-169 -384 185 0
169 -384 -185 0
169 384 -170 0
-170 385 171 0
-170 -385 178 0
170 -385 -178 0
170 385 -171 0
-171 386 172 0
-171 -386 175 0
171 -386 -175 0
171 386 -172 0
-172 387 174 0
-172 -387 173 0
172 -387 -173 0
172 387 -174 0
173 -352 388 0
173 -351 -388 0
-173 352 388 0
-173 351 -388 0
174 -354 388 0
174 -353 -388 0
-174 354 388 0
-174 353 -388 0
175 387 -176 0
175 -387 -177 0
-175 -387 177 0
-175 387 176 0
176 -350 388 0
176 -349 -388 0
-176 350 388 0
-176 349 -388 0
177 -348 388 0
177 -347 -388 0
-177 348 388 0
-177 347 -388 0
178 386 -179 0
178 -386 -182 0
-178 -386 182 0
-178 386 179 0
179 387 -180 0
179 -387 -181 0
-179 -387 181 0
-179 387 180 0
180 -346 388 0
180 -345 -388 0
-180 346 388 0
-180 345 -388 0
181 -344 388 0
181 -343 -388 0
-181 344 388 0
-181 343 -388 0
182 387 -183 0
182 -387 -184 0
-182 -387 184 0
-182 387 183 0
183 -342 388 0
183 -341 -388 0
-183 342 388 0
-183 341 -388 0
184 -340 388 0
184 -339 -388 0
-184 340 388 0
-184 339 -388 0
185 385 -186 0
185 -385 -193 0
-185 -385 193 0
-185 385 186 0
186 386 -187 0
186 -386 -190 0
-186 -386 190 0
-186 386 187 0
187 387 -188 0
187 -387 -189 0
-187 -387 189 0
-187 387 188 0
188 -338 388 0
188 -337 -388 0
-188 338 388 0
-188 337 -388 0
189 -336 388 0
189 -335 -388 0
-189 336 388 0
-189 335 -388 0
190 387 -191 0
190 -387 -192 0
-190 -387 192 0
-190 387 191 0
191 -334 388 0
191 -333 -388 0
-191 334 388 0
-191 333 -388 0
192 -332 388 0
192 -331 -388 0
-192 332 388 0
-192 331 -388 0
193 386 -194 0
193 -386 -197 0
-193 -386 197 0
-193 386 194 0
194 387 -195 0
194 -387 -196 0
-194 -387 196 0
-194 387 195 0
195 -330 388 0
195 -329 -388 0
-195 330 388 0
-195 329 -388 0
196 -328 388 0
196 -327 -388 0
-196 328 388 0
-196 327 -388 0
197 -325 387 -388 0
197 -326 387 388 0
-197 -387 0
-197 325 -388 0
-197 326 388 0
-198 384 199 0
-198 -384 214 0
198 -384 -214 0
198 384 -199 0
-199 385 200 0
-199 -385 207 0
199 -385 -207 0
199 385 -200 0
-200 386 201 0
-200 -386 204 0
200 -386 -204 0
200 386 -201 0
-201 387 203 0
-201 -387 202 0
201 -387 -202 0
201 387 -203 0
202 -351 388 0
202 -350 -388 0
-202 351 388 0
-202 350 -388 0
203 -353 388 0
203 -352 -388 0
-203 353 388 0
-203 352 -388 0
204 387 -205 0
204 -387 -206 0
-204 -387 206 0
-204 387 205 0
205 -349 388 0
205 -348 -388 0
-205 349 388 0
-205 348 -388 0
206 -347 388 0
206 -346 -388 0
-206 347 388 0
-206 346 -388 0
207 386 -208 0
207 -386 -211 0
-207 -386 211 0
-207 386 208 0
208 387 -209 0
208 -387 -210 0
-208 -387 210 0
-208 387 209 0
209 -345 388 0
209 -344 -388 0
-209 345 388 0
-209 344 -388 0
210 -343 388 0
210 -342 -388 0
-210 343 388 0
-210 342 -388 0
211 387 -212 0
211 -387 -213 0
-211 -387 213 0
-211 387 212 0
212 -341 388 0
212 -340 -388 0
-212 341 388 0
-212 340 -388 0
213 -339 388 0
213 -338 -388 0
-213 339 388 0
-213 338 -388 0
214 385 -215 0
214 -385 -222 0
-214 -385 222 0
-214 385 215 0
215 386 -216 0
215 -386 -219 0
-215 -386 219 0
-215 386 216 0
216 387 -217 0
216 -387 -218 0
-216 -387 218 0
-216 387 217 0
217 -337 388 0
217 -336 -388 0
-217 337 388 0
-217 336 -388 0
218 -335 388 0
218 -334 -388 0
-218 335 388 0
-218 334 -388 0
219 387 -220 0
219 -387 -221 0
-219 -387 221 0
-219 387 220 0
220 -333 388 0
220 -332 -388 0
-220 333 388 0
-220 332 -388 0
221 -331 388 0
221 -330 -388 0
-221 331 388 0
-221 330 -388 0
222 386 -223 0
222 -386 -226 0
-222 -386 226 0
-222 386 223 0
223 387 -224 0
223 -387 -225 0
-223 -387 225 0
-223 387 224 0
224 -329 388 0
224 -328 -388 0
-224 329 388 0
-224 328 -388 0
225 -327 388 0
225 -326 -388 0
-225 327 388 0
-225 326 -388 0
226 -325 387 388 0
-226 325 0
-226 -388 0
-226 -387 0
227 356 142 -243 0
227 -356 142 -228 0
-227 -142 0
-227 356 243 0
-227 -356 228 0
-228 384 229 0
-228 -384 236 0
228 -384 -236 0
228 384 -229 0
-229 385 230 0
-229 -385 233 0
229 -385 -233 0
229 385 -230 0
-230 386 232 0
-230 -386 231 0
230 -386 -231 0
230 386 -232 0
231 387 -177 0
231 -387 -180 0
-231 -387 180 0
-231 387 177 0
232 387 -173 0
232 -387 -176 0
-232 -387 176 0
-232 387 173 0
233 386 -234 0
233 -386 -235 0
-233 -386 235 0
-233 386 234 0
234 387 -181 0
234 -387 -183 0
-234 -387 183 0
-234 387 181 0
235 387 -184 0
235 -387 -188 0
-235 -387 188 0
-235 387 184 0
236 385 -237 0
236 -385 -240 0
-236 -385 240 0
-236 385 237 0
237 386 -238 0
237 -386 -239 0
-237 -386 239 0
-237 386 238 0
238 387 -189 0
238 -387 -191 0
-238 -387 191 0
-238 387 189 0
239 387 -192 0
239 -387 -195 0
-239 -387 195 0
-239 387 192 0
240 386 -241 0
-240 -386 0
-240 241 0
241 387 -196 0
241 -387 -242 0
-241 -387 242 0
-241 387 196 0
242 -326 388 0
242 -325 -388 0
-242 326 388 0
-242 325 -388 0
-243 384 244 0
-243 -384 251 0
243 -384 -251 0
243 384 -244 0
-244 385 245 0
-244 -385 248 0
244 -385 -248 0
244 385 -245 0
-245 386 247 0
-245 -386 246 0
245 -386 -246 0
245 386 -247 0
246 387 -206 0
246 -387 -209 0
-246 -387 209 0
-246 387 206 0
247 387 -202 0
247 -387 -205 0
-247 -387 205 0
-247 387 202 0
248 386 -249 0
248 -386 -250 0
-248 -386 250 0
-248 386 249 0
249 387 -210 0
249 -387 -212 0
-249 -387 212 0
-249 387 210 0
250 387 -213 0
250 -387 -217 0
-250 -387 217 0
-250 387 213 0
251 385 -252 0
251 -385 -255 0
-251 -385 255 0
-251 385 252 0
252 386 -253 0
252 -386 -254 0
-252 -386 254 0
-252 386 253 0
253 387 -218 0
253 -387 -220 0
-253 -387 220 0
-253 387 218 0
254 387 -221 0
254 -387 -224 0
-254 -387 224 0
-254 387 221 0
255 386 -256 0
-255 -386 0
-255 256 0
256 387 -225 0
256 -325 -387 388 0
-256 387 225 0
-256 -387 -388 0
-256 325 -387 0
-257 354 -355 258 0
-257 354 355 273 0
257 -354 0
257 -355 -258 0
257 355 -273 0
258 356 142 -266 0
258 -356 142 -259 0
-258 -142 0
-258 356 266 0
-258 -356 259 0
-259 384 260 0
-259 -384 263 0
259 -384 -263 0
259 384 -260 0
-260 385 261 0
-260 -385 262 0
260 -385 -262 0
260 385 -261 0
-261 -386 179 0
-261 386 175 0
261 386 -175 0
261 -386 -179 0
262 386 -182 0
262 -386 -187 0
-262 -386 187 0
-262 386 182 0
263 385 -264 0
263 -385 -265 0
-263 -385 265 0
-263 385 264 0
264 386 -190 0
264 -386 -194 0
-264 -386 194 0
-264 386 190 0
265 386 -197 0
-265 -386 0
-265 197 0
-266 384 267 0
-266 -384 270 0
266 -384 -270 0
266 384 -267 0
-267 385 268 0
-267 -385 269 0
267 -385 -269 0
267 385 -268 0
-268 -386 208 0
-268 386 204 0
268 386 -204 0
268 -386 -208 0
269 386 -211 0
269 -386 -216 0
-269 -386 216 0
-269 386 211 0
270 385 -271 0
270 -385 -272 0
-270 -385 272 0
-270 385 271 0
271 386 -219 0
271 -386 -223 0
-271 -386 223 0
-271 386 219 0
272 -325 386 387 388 0
-272 -388 0
-272 -387 0
-272 325 0
-272 -386 0
273 -356 -274 0
273 356 -280 0
-273 356 280 0
-273 -356 274 0
274 -384 142 -278 0
274 384 142 -275 0
-274 -142 0
-274 -384 278 0
-274 384 275 0
275 385 -276 0
275 -385 -277 0
-275 -385 277 0
-275 385 276 0
276 386 -231 0
276 -386 -234 0
-276 -386 234 0
-276 386 231 0
277 386 -235 0
277 -386 -238 0
-277 -386 238 0
-277 386 235 0
278 385 -279 0
-278 -385 0
-278 279 0
279 386 -239 0
279 -386 -241 0
-279 -386 241 0
-279 386 239 0
280 -384 142 -284 0
280 384 142 -281 0
-280 -142 0
-280 -384 284 0
-280 384 281 0
281 385 -282 0
281 -385 -283 0
-281 -385 283 0
-281 385 282 0
282 386 -246 0
282 -386 -249 0
-282 -386 249 0
-282 386 246 0
283 386 -250 0
283 -386 -253 0
-283 -386 253 0
-283 386 250 0
284 385 -285 0
-284 -385 0
-284 285 0
285 386 -254 0
285 -386 -256 0
-285 -386 256 0
-285 386 254 0
286 354 -301 0
286 -354 287 -294 0
-286 -354 -287 0
-286 354 301 0
-286 -354 294 0
287 -355 356 291 0
287 -355 -356 288 0
-287 355 0
-287 -356 -288 0
-287 356 -291 0
288 -384 142 -290 0
288 384 142 -289 0
-288 -142 0
-288 -384 290 0
-288 384 289 0
289 385 -178 0
289 -385 -186 0
-289 -385 186 0
-289 385 178 0
290 385 -193 0
-290 -385 0
-290 193 0
291 -384 142 -293 0
291 384 142 -292 0
-291 -142 0
-291 -384 293 0
-291 384 292 0
292 385 -207 0
292 -385 -215 0
-292 -385 215 0
-292 385 207 0
293 385 -222 0
-293 -385 0
-293 222 0
-294 355 -356 295 0
-294 355 356 298 0
294 -355 0
294 -356 -295 0
294 356 -298 0
295 -384 142 -297 0
295 384 142 -296 0
-295 -142 0
-295 -384 297 0
-295 384 296 0
296 385 -233 0
296 -385 -237 0
-296 -385 237 0
-296 385 233 0
297 385 -240 0
-297 -385 0
-297 240 0
298 -384 142 -300 0
298 384 142 -299 0
-298 -142 0
-298 -384 300 0
-298 384 299 0
299 385 -248 0
299 -385 -252 0
-299 -385 252 0
-299 385 248 0
300 385 -255 0
-300 -385 0
-300 255 0
301 -355 -302 0
301 355 -309 0
-301 355 309 0
-301 -355 302 0
302 -356 -303 0
302 356 -306 0
-302 356 306 0
-302 -356 303 0
303 -384 142 -305 0
303 384 142 -304 0
-303 -142 0
-303 -384 305 0
-303 384 304 0
304 385 -262 0
304 -385 -264 0
-304 -385 264 0
-304 385 262 0
305 385 -265 0
-305 -385 0
-305 265 0
306 -384 142 -308 0
306 384 142 -307 0
-306 -142 0
-306 -384 308 0
-306 384 307 0
307 385 -269 0
307 -385 -271 0
-307 -385 271 0
-307 385 269 0
308 385 -272 0
-308 -385 0
-308 272 0
309 356 310 -312 0
309 -356 310 -311 0
-309 -310 0
-309 -356 311 0
-309 356 312 0
-310 384 142 0
310 -384 0
310 -142 0
311 385 -277 0
311 -385 -279 0
-311 -385 279 0
-311 385 277 0
312 385 -283 0
312 -385 -285 0
-312 -385 285 0
-312 385 283 0
313 353 -320 0
313 -353 314 -317 0
-313 -353 -314 0
-313 353 320 0
-313 -353 317 0
314 -354 355 316 0
314 -354 -355 315 0
-314 354 0
-314 -355 -315 0
-314 355 -316 0
315 -356 -185 310 0
315 356 -214 310 0
-315 -310 0
-315 -356 185 0
-315 356 214 0
316 -356 -236 310 0
316 356 -251 310 0
-316 -310 0
-316 -356 236 0
-316 356 251 0
-317 354 -355 318 0
-317 354 355 319 0
317 -354 0
317 -355 -318 0
317 355 -319 0
318 -356 -263 310 0
318 356 -270 310 0
-318 -310 0
-318 -356 263 0
-318 356 270 0
319 -356 -278 310 0
319 356 -284 310 0
-319 -310 0
-319 -356 278 0
-319 356 284 0
320 -354 -321 0
320 354 -355 -324 0
-320 -354 321 0
-320 354 355 0
-320 354 324 0
321 -355 -322 0
321 355 -323 0
-321 355 323 0
-321 -355 322 0
322 -356 -290 310 0
322 356 -293 310 0
-322 -310 0
-322 -356 290 0
-322 356 293 0
323 -356 -297 310 0
323 356 -300 310 0
-323 -310 0
-323 -356 297 0
-323 356 300 0
324 -356 -305 310 0
324 356 -308 310 0
-324 -310 0
-324 -356 305 0
-324 356 308 0
-389 0
2 0

